Route 1: 0 26 62 37 52 18 93 67 20 80 27 19 46 0
Route 2: 0 88 31 13 63 100 5 79 1 58 48 43 64 0
Route 3: 0 85 14 8 95 10 2 99 44 83 16 96 71 0
Route 4: 0 84 7 90 91 70 42 34 82 3 12 92 0
Route 5: 0 86 28 66 75 97 21 11 55 47 0
Route 6: 0 22 41 24 30 72 50 65 87 4 0
Route 7: 0 51 23 78 49 61 38 57 45 40 53 76 32 0
Route 8: 0 15 94 39 6 9 25 98 89 69 54 0
Route 9: 0 56 81 35 60 36 68 29 74 73 0
Route 10: 0 59 77 33 17 0
